59
275
171
496
394
223
326
360
26
252
283
310
258
383
41
247
444
374
132
237
71
121
358
35
84
238
453
487
20
465
226
88
254
58
282
308
220
369
373
88
321
259
224
337
165
413
264
274
293
285
8
26
405
253
451
116
113
227
257
143
334
